 $SYSTEM MWORDS=100 memddi=100 $END
 $CONTRL   MULT=1   UNITS=ANGS SCFTYP=RHF 
  RUNTYP=OPTIMIZE
  MPLEVL=2 
   EXETYP=RUN   MAXIT=50  NPRINT=8 ispher=1 $END
 $BASIS GBASIS=N31 NGAUSS=6 NDFUNC=1     $END
 $auxbas cabnam=CCD $end
 $DATA
   H20 Geometry Optization
 CnV 2

 O           8.0    .0000000000    .0000000000    .2572210279
 H           1.0    .0000000000   -.7580130359   -.3786105139
 $END
