 $SYSTEM MWORDS=100 memddi=100 $END
 $CONTRL   MULT=1   UNITS=ANGS SCFTYP=RHF 
  RUNTYP=OPTIMIZE
  MPLEVL=2 
   EXETYP=RUN   MAXIT=50  NPRINT=8 ispher=1 $END
 $BASIS GBASIS=N31 NGAUSS=6 NDFUNC=1     $END
 $auxbas cabnam=CCD $end
 $DATA
   CO2 Geometry Optimization
CNV      2

 C  6.0    .0000000000  .00000000  .0000000000   
 O  8.0    .0000000000  .50000000  .0000000000   
 $END
