! Assignment 1 from Dr Gordon
! Optimize H20 geometry with HF, and STO-3G basis set
! use C2v symmetry 
!
 $CONTRL SCFTYP=RHF RUNTYP=OPTIMIZE $END
 $BASIS  GBASIS=STO NGAUSS=3 $END
 $DATA
STO-3G
Cnv      2

O   8.0
H   1.0   0.0     0.7572157    0.5865358
 $END
 


