! Assignment 1 from Dr Gordon
! NH3 with HF, and 6-31G(d) basis set - hessian run
! use C2v symmetry 
!
 $CONTRL SCFTYP=RHF RUNTYP=HESSIAN $END
 $SYSTEM TIMLIM=1 MEMDDI=1 PARALL=.TRUE. $END
 $BASIS  GBASIS=N31 NGAUSS=6 NDFUNC=1 $END
 $DATA
NH3 - 6-31G(d) - hessian
Cnv      3

N           7.0  -0.0000000000  -0.0000000000   0.0396787512
H           1.0   0.9316147517   0.0000000000   0.4101057028
 $END