! Assignment 1 from Dr Gordon
! Optimize NH3 geometry with HF, and STO-3G basis set
! use D3h symmetry 
 $CONTRL SCFTYP=RHF RUNTYP=OPTIMIZE $END
 $BASIS GBASIS=STO NGAUSS=3 $END
 $DATA
 STO-3G D3H NH3
 DNH 3

 N 7.0 .0000000000 .0000000000 .0000000000
 H 1.0 1.000000000 .0000000000 .0000000000
 $END

