! Assignment 1 from Dr Gordon
! Optimize NH3 geometry with HF, and 6-31G basis set
! use D3h symmetry 
!
 $CONTRL SCFTYP=RHF RUNTYP=OPTIMIZE $END
 $SYSTEM TIMLIM=1 MEMDDI=1 PARALL=.TRUE. $END
 $BASIS  GBASIS=N31 NGAUSS=6 $END
 $DATA
6-31G - NH3 - D3h
Dnh      3

NITROGEN   7.0
HYDROGEN   1.0   1.02000  0.00000    0.00000
 $END