! Assignment 1 from Dr Gordon
! Optimize NH3 geometry with HF, and 6-31G(d) basis set
! use D3h symmetry 
!
 $CONTRL SCFTYP=RHF RUNTYP=OPTIMIZE $END
 $BASIS  GBASIS=N31 NGAUSS=6 NDFUNC=1 $END
 $DATA
6-31G(d) - NH3 - D3h
Dnh      3

NITROGEN   7.0
HYDROGEN   1.0   1.00000  0.00000    0.00000
 $END