 $SYSTEM MWORDS=100 memddi=100 $END
 $CONTRL   MULT=1   UNITS=ANGS SCFTYP=RHF 
  RUNTYP=OPTIMIZE
  MPLEVL=2 
   EXETYP=RUN   MAXIT=50  NPRINT=8 ispher=1 $END
 $BASIS GBASIS=N31 NGAUSS=6 NDFUNC=1     $END
 $auxbas cabnam=CCD $end
 $DATA
   N2 Geometry Optimization
CNV      2

 N    7.0   0.0000000000   0.5655528605   0.0000000000
 $END
