! Assignment 1 from Dr Gordon
! Optimize NH3 geometry with HF, and 6-31G(d) basis set
! use C2v symmetry 
!
 $CONTRL SCFTYP=RHF RUNTYP=OPTIMIZE $END
 $BASIS  GBASIS=N31 NGAUSS=6 NDFUNC=1 $END
 $DATA
6-31G(d) - NH3
Cnv      3

N 7.0 .0000000000 .0000000000 -.1592817187
H 1.0 .7581807764 .0000000000 .4764258594 
 $END